/*********************************************
 * OPL 12.6.0.0 Data
 * Author: Adrian Rodriguez Bazaga, Pau Rodriguez Esmerats
 * Creation Date: 06/12/2017 at 23:02:57
 *********************************************/

nNurses=167;
maxConsec=2;
maxPresence=7;
maxHours=5;
minHours=1;
hours=24;
demand= [32 25 43 42 25 43 42 25 26 13 4 3 5 5 7 5 4 2 3 2 21 39 20 39  ];
